(declare-const |param0@width':60| Int)
(declare-const param0 Int)
(declare-const |param0':56| Int)
(declare-const return@width Int)
(declare-const |return@pos':57| Int)
(declare-const param0@width Int)
(declare-const |param0@pos':58| Int)
(declare-const return@pos Int)
(declare-const |K:71| Int)
(declare-const param0@pos Int)
(declare-const return Int)
(declare-const |x':54| Int)
(declare-const |return':55| Int)
(declare-const |return@width':59| Int)
(assert (and (or (not (<= (- |K:71|) 0)) (= (+ |x':54| (* -2 |K:71|)) 0))
               (or (not (and (<= (- |K:71|) 0) (<= |K:71| 0)))
                     (= (+ (- param0) |param0':56| (* -2 |K:71|)) 0))
               (or (not (<= (+ (- |K:71|) 1) 0))
                     (= (+ |param0':56| (* -2 |K:71|) 2) 0))
               (or (not (and (<= (- |K:71|) 0) (<= |K:71| 0)))
                     (= (+ (- return) |return':55| (* -2 |K:71|)) 0))
               (or (not (<= (+ (- |K:71|) 1) 0))
                     (= (+ |return':55| (* -2 |K:71|)) 0))
               (or (and (= |K:71| 0)
                          (= (+ (- |param0@width':60|) param0@width) 0)
                          (= (+ (- |return@width':59|) return@width) 0)
                          (= (+ (- |param0@pos':58|) param0@pos) 0)
                          (= (+ (- |return@pos':57|) return@pos) 0)
                          (= (+ param0 (- |param0':56|)) 0)
                          (= (+ return (- |return':55|)) 0) (= (- |x':54|) 0))
                     (and (<= (+ (- |K:71|) 1) 0)
                            (= (+ (- |return':55|) |x':54|) 0)
                            (= (+ (- |return':55|) |param0':56| 2) 0)
                            (<= (+ |return':55| -268435456) 0)))
               (<= (- |K:71|) 0) (<= (+ (- |x':54|) 268435455) 0)
               (not (= (mod |x':54| 2) 0))))
(check-sat)
